702 5
10 10 10 10 10 

0 0 0 0 0 0 5 2 14 66 118 170 
0 0 0 0 0 0 5 3 4 6 11 12 
3 2 0 0 0 0 4 10 9 7 5 
10 9 0 0 0 0 2 7 5 
5 8 0 0 0 0 1 8 
10 8 0 0 0 0 1 7 
6 8 0 0 0 0 1 13 
8 9 0 0 0 0 1 13 
8 3 0 0 0 0 2 13 246 
10 10 0 0 0 0 1 13 
10 8 0 0 0 0 1 13 
8 10 0 0 0 0 1 13 
0 0 0 0 0 0 5 222 264 276 318 360 
0 0 0 0 0 0 5 15 16 17 19 28 
9 3 1 2 4 6 2 27 18 
9 5 10 10 10 5 3 30 22 20 
5 10 6 8 5 6 3 30 27 20 
10 9 7 6 10 10 4 30 24 22 21 
6 9 10 3 8 8 3 30 22 21 
5 5 7 7 6 6 4 25 24 23 21 
9 9 10 2 5 10 4 43 31 29 26 
9 10 8 5 7 6 3 33 25 23 
8 10 7 10 7 10 4 43 36 35 31 
7 6 8 7 9 10 3 43 35 29 
8 8 8 10 6 7 4 43 36 34 32 
3 8 10 6 9 6 3 35 33 32 
1 6 6 9 9 5 3 43 36 31 
10 7 10 8 9 8 2 43 29 
6 7 8 10 10 10 2 36 32 
3 9 8 9 6 6 1 31 
10 7 10 10 4 10 2 39 34 
3 6 2 7 9 7 4 41 40 39 37 
7 9 6 6 10 5 1 34 
8 3 10 7 5 6 3 41 40 37 
7 8 5 3 9 8 4 47 41 39 38 
3 6 7 10 8 10 3 47 41 39 
9 10 4 10 5 5 2 47 38 
8 10 9 7 7 10 3 46 45 42 
1 2 5 10 7 5 3 46 45 42 
8 10 9 5 7 6 3 50 47 42 
4 7 9 6 3 8 3 50 49 44 
8 6 10 10 7 5 2 49 44 
8 9 6 7 10 8 6 64 53 52 51 50 49 
6 8 9 5 9 4 5 64 63 52 51 48 
10 10 10 10 10 10 4 52 50 49 48 
8 7 6 10 6 8 4 64 51 49 48 
5 8 3 10 6 8 4 63 51 49 48 
6 10 5 7 9 8 8 61 60 59 57 56 55 54 53 
9 8 8 6 7 10 4 61 57 56 54 
8 10 7 8 5 7 4 63 60 55 54 
3 9 8 9 10 10 4 58 57 56 539 
10 5 4 7 5 7 3 59 55 54 
2 10 7 8 5 8 2 62 58 
4 10 10 10 7 8 1 65 
1 9 10 7 9 7 1 65 
5 4 10 8 8 7 1 65 
7 3 9 9 8 7 1 65 
1 6 6 8 10 7 1 65 
8 5 4 10 7 10 1 65 
6 7 9 9 5 8 1 65 
2 8 10 6 10 5 1 65 
7 9 9 5 10 10 1 65 
3 7 9 6 9 7 1 65 
6 8 6 7 9 7 1 65 
0 0 0 0 0 0 1 702 
0 0 0 0 0 0 5 67 68 69 71 80 
10 4 2 3 2 4 2 79 70 
5 5 5 10 10 10 3 81 74 72 
3 5 8 6 8 6 3 81 79 72 
2 6 7 9 10 4 4 81 75 74 73 
5 6 8 8 6 10 3 81 74 73 
5 6 10 9 9 7 4 77 76 75 73 
3 5 8 4 10 7 4 93 83 82 78 
6 8 7 4 7 10 3 85 77 76 
2 8 9 10 10 6 4 93 87 83 82 
2 9 5 8 10 8 4 93 89 87 83 
2 6 10 8 6 8 4 93 89 86 84 
5 9 4 7 6 8 3 87 85 84 
2 7 5 10 7 7 3 93 89 83 
10 4 4 10 4 7 2 93 82 
3 10 8 9 7 7 2 93 83 
6 9 10 8 6 7 2 89 84 
9 7 10 8 8 10 2 91 86 
10 10 10 10 6 7 3 92 91 88 
9 6 7 9 7 6 1 86 
2 8 10 7 10 10 2 92 88 
4 7 9 3 6 6 4 98 94 91 90 
2 8 6 7 7 7 3 98 94 90 
8 5 9 9 10 5 3 98 94 91 
2 10 10 7 7 8 3 99 97 95 
4 10 10 7 8 10 3 99 97 95 
10 10 10 9 10 6 3 102 98 95 
6 8 5 7 9 6 3 102 98 96 
3 9 10 10 5 6 2 102 96 
10 10 10 9 6 8 1 96 
10 8 7 10 7 10 6 116 115 104 103 101 100 
4 10 5 6 4 9 4 104 102 101 100 
3 5 3 8 9 8 4 115 103 101 100 
2 7 5 6 5 10 4 116 103 101 100 
8 10 10 10 9 8 8 113 112 111 109 108 107 106 105 
6 9 6 10 10 10 4 113 109 108 106 
8 7 5 6 8 7 4 115 112 107 106 
4 4 9 5 4 6 3 110 109 108 
4 5 6 9 9 6 3 111 107 106 
10 10 7 3 6 8 2 114 110 
9 10 10 10 8 10 1 117 
4 10 8 10 4 5 1 117 
7 9 10 7 10 4 1 117 
4 4 6 7 8 8 1 117 
10 8 9 5 10 9 1 117 
6 8 5 9 10 8 1 117 
1 9 6 7 9 10 1 117 
3 9 5 5 9 6 2 117 471 
5 8 7 4 6 8 1 117 
7 6 10 4 6 8 1 117 
7 4 10 9 7 6 1 117 
0 0 0 0 0 0 1 702 
0 0 0 0 0 0 3 119 120 121 
2 6 2 4 10 3 4 131 128 124 122 
9 9 6 10 2 7 2 126 123 
9 7 9 10 8 10 2 131 123 
3 6 8 9 10 5 4 133 127 126 125 
2 7 5 5 5 9 5 133 132 129 127 125 
3 7 5 4 6 10 3 133 126 125 
1 8 4 5 6 10 4 143 135 134 130 
7 7 10 8 7 8 3 136 132 129 
4 8 3 6 4 10 4 143 138 135 134 
4 10 6 8 8 7 4 143 139 138 134 
7 10 7 8 10 8 4 143 140 138 135 
2 6 7 5 7 7 4 140 138 137 136 
5 10 10 4 9 10 5 143 140 137 135 476 
10 5 6 10 5 5 4 143 140 139 137 
5 10 10 10 6 8 2 143 135 
3 10 8 5 6 9 2 140 137 
5 10 10 6 8 6 2 145 139 
9 6 4 5 9 7 2 145 139 
9 3 10 6 10 6 2 145 141 
6 5 6 10 9 9 3 145 144 142 
8 5 8 10 7 7 1 141 
7 6 10 10 9 9 3 147 145 142 
3 3 10 7 10 4 2 144 142 
10 10 10 8 4 7 4 151 150 148 146 
8 10 10 9 10 9 4 151 150 148 147 
7 10 10 10 7 8 3 150 148 147 
5 10 7 4 10 8 3 151 150 148 
10 4 10 8 9 9 2 155 149 
10 6 7 6 9 1 6 168 156 155 154 153 152 
5 9 6 5 7 8 1 149 
9 7 6 7 8 8 6 168 167 156 154 153 152 
10 7 10 9 10 10 5 168 167 154 153 152 
6 10 6 7 10 5 4 156 155 153 152 
1 6 7 10 8 4 8 165 163 162 161 160 159 158 157 
9 8 7 10 6 7 5 163 162 161 160 158 
4 9 5 8 5 4 4 164 163 162 161 
1 7 10 9 7 9 4 167 165 159 158 
8 10 6 9 7 6 3 160 159 158 
10 8 7 7 10 7 2 166 164 
6 9 9 7 2 8 1 169 
10 7 6 5 6 8 1 169 
6 6 6 5 6 8 1 169 
1 8 10 8 7 7 1 169 
6 7 7 9 9 10 1 169 
3 4 10 6 8 9 1 169 
4 6 4 10 7 9 1 169 
7 4 10 6 6 10 1 169 
7 9 5 10 8 4 1 169 
3 10 10 9 8 8 1 169 
8 10 10 9 10 10 1 169 
0 0 0 0 0 0 1 702 
0 0 0 0 0 0 3 171 173 174 
7 3 5 4 4 7 3 176 175 172 
5 8 10 8 4 5 6 185 181 180 179 178 177 
5 7 8 9 8 4 3 180 177 175 
5 10 10 10 8 6 2 177 175 
10 9 10 8 9 10 4 185 184 179 178 
2 8 10 10 7 10 3 185 178 177 
9 6 5 8 10 6 4 189 187 184 183 
5 9 7 9 4 5 4 187 186 182 646 
9 10 10 8 10 6 3 189 187 183 
10 10 8 10 6 6 4 191 189 188 186 
7 10 3 10 10 9 4 193 191 189 187 
5 6 5 7 8 5 3 191 189 188 
2 8 10 5 7 7 2 191 186 
4 5 7 8 9 5 2 188 186 
1 5 4 4 10 10 2 189 186 
8 7 10 4 10 9 3 193 192 190 
3 6 5 6 8 10 1 188 
7 8 6 2 10 6 2 194 190 
8 10 8 9 9 10 2 196 192 
1 7 10 8 8 7 3 197 196 195 
3 8 6 9 10 10 3 197 196 195 
7 7 10 6 8 5 1 194 
5 10 8 9 8 8 3 200 197 196 
10 9 5 10 10 5 2 197 195 
5 4 10 5 7 6 4 203 201 200 199 
5 9 10 9 8 10 4 203 201 199 198 
4 6 6 8 6 7 3 203 201 198 
10 10 9 8 6 6 2 205 202 
9 6 7 4 6 7 2 205 202 
4 9 6 9 6 8 2 205 202 
4 7 10 9 10 7 1 202 
5 6 9 10 5 10 5 220 219 208 207 204 
10 8 4 6 10 7 4 220 219 208 204 
9 7 9 8 5 7 3 217 209 206 
8 6 5 7 6 10 3 219 217 206 
5 10 8 10 7 5 7 218 216 215 214 213 211 210 
5 6 8 5 4 7 6 217 216 215 212 211 210 
5 9 5 10 6 10 4 214 213 212 211 
4 10 7 10 6 6 2 212 210 
7 9 7 8 8 10 1 221 
9 8 7 7 10 8 1 221 
5 6 5 9 6 10 1 221 
2 5 7 6 8 10 1 221 
4 2 9 8 8 4 1 221 
8 5 6 7 5 10 1 221 
6 6 6 8 8 10 1 221 
5 10 10 6 4 10 1 221 
5 6 10 4 9 6 1 221 
7 9 6 4 9 3 1 221 
3 10 9 9 7 10 1 221 
0 0 0 0 0 0 1 702 
0 0 0 0 0 0 3 223 224 228 
10 0 2 4 2 7 4 232 227 226 225 
6 0 8 7 5 10 4 237 235 231 229 
3 0 8 6 9 8 7 248 239 237 236 235 233 231 
6 0 7 4 5 5 3 235 231 229 
8 0 6 6 6 8 6 252 239 235 234 233 230 
3 0 6 7 10 8 4 239 236 232 231 
1 0 10 5 7 7 4 252 239 234 230 
6 0 6 9 7 5 7 248 246 244 243 242 240 236 
1 0 3 4 8 5 4 243 241 238 234 
6 0 8 10 10 8 4 248 247 240 235 
10 0 8 9 10 10 6 250 247 246 244 241 240 
1 0 10 10 9 8 5 250 247 246 244 240 
8 0 10 9 10 6 5 250 246 244 242 238 
4 0 6 4 7 8 4 250 247 241 238 
9 0 5 9 10 5 5 254 252 250 247 242 
6 0 10 10 6 10 3 257 249 245 
2 0 8 6 6 7 3 253 250 247 
3 0 9 6 10 4 3 254 253 251 
8 0 6 10 8 4 2 257 249 
1 0 7 10 9 9 2 253 249 
2 0 5 7 7 7 2 253 249 
10 0 10 10 7 10 1 245 
7 0 10 5 8 10 5 256 255 254 253 552 
9 0 10 7 10 8 3 262 253 251 
8 0 7 9 5 6 1 249 
7 0 9 7 9 10 3 255 254 253 
10 0 4 7 5 7 2 262 251 
9 0 8 10 7 8 2 257 251 
10 0 6 4 8 7 3 261 256 255 
1 0 10 4 8 7 3 261 256 255 
6 0 10 10 8 3 4 261 260 259 258 
5 0 6 10 7 6 4 262 261 259 258 
7 0 9 7 8 5 3 260 259 258 
6 0 8 10 10 9 3 260 259 258 
5 0 4 8 9 10 3 260 259 258 
8 0 9 7 8 10 1 263 
5 0 6 8 5 10 1 263 
9 0 6 10 5 7 1 263 
3 0 10 7 3 8 1 263 
2 0 10 8 9 10 1 263 
0 0 0 0 0 0 1 702 
0 0 0 0 0 0 4 265 266 267 270 
4 0 0 0 1 0 4 274 273 272 269 
3 0 0 0 7 0 4 274 273 271 268 
4 0 0 0 7 0 3 273 271 268 
2 0 0 0 10 0 1 272 
9 0 0 0 10 0 1 271 
9 0 0 0 5 0 1 271 
8 0 0 0 7 0 2 275 693 
5 0 0 0 9 0 1 275 
6 0 0 0 9 0 1 275 
10 0 0 0 10 0 1 275 
0 0 0 0 0 0 5 402 434 466 478 510 
0 0 0 0 0 0 3 277 278 282 
7 2 3 6 4 0 4 285 281 280 279 
5 9 6 6 8 0 4 291 290 286 283 
6 5 4 5 4 0 6 304 291 290 289 287 286 
5 10 9 10 5 0 3 290 286 283 
4 5 7 7 6 0 5 297 290 288 287 284 
7 10 10 10 5 0 3 289 286 285 
8 5 7 5 7 0 4 297 293 288 284 
8 7 9 5 6 0 6 304 300 298 295 294 289 
2 8 10 8 7 0 5 304 297 296 293 290 
8 8 8 10 8 0 4 300 298 292 288 
5 5 4 5 9 0 6 299 298 296 295 294 293 
10 10 5 8 8 0 6 303 302 299 296 295 294 
6 10 8 9 6 0 5 303 302 299 296 292 
4 5 7 7 5 0 5 302 298 295 294 292 
3 10 8 6 6 0 4 298 297 295 293 
6 7 8 5 10 0 3 309 305 301 
1 9 10 10 9 0 3 307 303 302 
7 7 6 10 10 0 2 305 301 
5 10 9 6 10 0 3 308 307 306 
10 10 10 10 8 0 3 308 307 306 
8 10 9 7 7 0 3 308 307 306 
7 10 9 8 10 0 2 307 305 
6 6 10 9 5 0 2 309 305 
1 9 9 8 6 0 2 307 305 
9 7 8 10 8 0 4 311 310 308 307 
7 9 10 7 5 0 3 316 309 306 
7 10 5 9 8 0 1 305 
9 2 5 9 10 0 3 310 308 307 
4 7 10 10 9 0 2 316 306 
10 5 10 5 7 0 3 315 311 310 
1 10 8 3 8 0 4 315 314 313 312 
2 6 6 6 8 0 4 316 315 313 312 
6 9 4 10 8 0 1 310 
2 3 5 7 7 0 3 314 313 312 
9 3 10 10 10 0 3 314 313 312 
7 9 4 4 7 0 2 317 353 
4 10 6 9 10 0 1 317 
1 10 8 5 7 0 1 317 
1 9 6 8 10 0 1 317 
1 4 10 8 9 0 1 317 
0 0 0 0 0 0 1 702 
0 0 0 0 0 0 3 319 323 325 
4 2 0 5 3 4 4 328 322 321 320 
5 2 0 10 8 8 7 347 335 333 332 331 330 327 
9 10 0 10 8 8 2 331 324 
7 10 0 6 10 5 5 350 335 331 329 326 
3 10 0 9 8 7 4 335 333 329 326 
6 10 0 7 5 8 4 350 335 329 326 
3 7 0 9 10 8 3 332 328 327 
1 10 0 10 10 10 8 347 343 341 340 338 337 336 332 
7 7 0 6 10 8 5 341 338 337 334 329 
2 10 0 5 9 6 5 347 345 342 340 331 
9 5 0 9 7 2 5 345 343 342 340 339 
6 5 0 10 5 7 5 345 343 341 340 337 
2 7 0 6 10 7 5 343 341 336 334 629 
10 10 0 6 9 10 3 345 342 334 
1 10 0 8 6 6 4 350 349 345 336 
1 5 0 5 6 8 3 353 344 339 
4 10 0 7 7 5 2 345 342 
6 9 0 10 6 10 2 348 344 
10 5 0 9 6 8 2 353 344 
5 9 0 7 7 6 2 348 344 
10 7 0 6 9 6 4 352 351 349 348 
9 10 0 10 10 9 4 352 351 349 348 
7 8 0 10 10 10 3 358 348 346 
10 4 0 6 4 6 1 344 
6 2 0 8 9 6 3 351 349 348 
8 3 0 5 6 5 2 358 346 
6 8 0 10 5 10 2 353 346 
10 8 0 7 10 6 3 357 352 351 
6 9 0 7 8 10 1 349 
2 10 0 7 4 9 4 357 356 355 354 
5 7 0 9 4 7 4 358 357 355 354 
1 10 0 4 10 8 1 351 
4 7 0 10 10 7 3 356 355 354 
5 5 0 6 5 8 3 356 355 354 
6 9 0 10 6 10 2 356 354 
5 9 0 3 5 9 1 359 
10 9 0 6 10 8 1 359 
9 6 0 9 7 7 1 359 
7 9 0 3 8 8 1 359 
9 7 0 10 10 10 1 359 
0 0 0 0 0 0 1 702 
0 0 0 0 0 0 6 361 366 368 369 373 381 
5 3 0 4 2 4 4 370 367 364 362 
9 4 0 4 5 7 1 363 
6 10 0 10 3 9 8 400 399 392 388 382 377 376 365 
8 10 0 10 5 8 7 400 392 387 383 377 376 372 
10 8 0 10 6 8 6 398 387 384 383 378 371 
7 8 0 8 6 8 6 398 387 385 383 377 374 
2 3 0 9 9 9 5 398 387 385 377 374 
10 10 0 10 10 5 4 399 388 386 371 
4 7 0 10 10 10 4 399 392 382 374 
6 3 0 10 7 7 3 399 384 379 
5 5 0 4 8 7 2 391 375 
8 10 0 5 8 7 2 398 374 
2 5 0 5 8 10 2 388 379 
1 8 0 7 6 7 2 391 379 
3 4 0 6 8 10 2 397 379 
3 6 0 8 5 4 2 398 379 
4 10 0 8 9 9 2 397 380 
8 10 0 10 7 9 2 397 380 
10 10 0 6 10 8 1 380 
4 6 0 3 10 4 4 396 393 390 389 
9 5 0 6 8 6 2 395 386 
4 10 0 8 10 7 3 396 394 393 
2 10 0 9 10 10 1 386 
5 7 0 10 10 10 1 386 
5 10 0 7 7 7 1 388 
6 6 0 5 10 4 3 397 393 605 
9 10 0 6 7 7 2 397 393 
4 8 0 10 5 10 1 391 
6 9 0 10 7 10 1 395 
9 4 0 10 7 10 1 394 
8 9 0 5 9 8 1 394 
2 7 0 9 6 7 1 398 
1 8 0 8 8 3 1 401 
10 8 0 10 3 6 1 401 
3 10 0 6 6 6 1 401 
3 10 0 8 10 6 1 401 
6 8 0 10 9 10 1 401 
5 8 0 5 10 7 1 401 
8 6 0 3 8 10 1 401 
8 7 0 8 8 6 1 401 
0 0 0 0 0 0 1 702 
0 0 0 0 0 0 6 403 404 405 406 410 432 
9 0 0 4 1 1 4 415 409 408 407 
1 0 0 8 8 10 6 430 425 421 418 414 411 
3 0 0 9 10 10 5 431 422 418 412 409 
3 0 0 6 7 7 5 421 418 415 414 411 
8 0 0 6 2 9 4 425 422 421 411 
2 0 0 9 10 7 3 427 413 412 
4 0 0 10 6 6 5 427 425 421 420 416 
1 0 0 7 10 8 4 429 416 415 413 
4 0 0 9 9 10 2 427 412 
1 0 0 8 5 10 3 428 420 416 
1 0 0 10 6 8 3 425 420 419 
2 0 0 8 5 8 2 426 416 
2 0 0 7 9 6 2 425 419 
10 0 0 9 10 5 1 417 
5 0 0 7 10 10 1 419 
10 0 0 4 10 7 1 419 
10 0 0 10 7 7 1 423 
7 0 0 5 6 8 1 424 
5 0 0 10 8 6 1 426 
7 0 0 7 8 10 1 426 
8 0 0 6 7 6 1 433 
3 0 0 9 8 4 1 433 
8 0 0 5 8 5 1 433 
6 0 0 5 10 7 1 433 
7 0 0 6 10 9 1 433 
4 0 0 7 6 7 1 433 
1 0 0 8 7 8 1 433 
10 0 0 8 5 9 2 433 635 
2 0 0 9 10 10 1 433 
5 0 0 9 7 7 1 433 
0 0 0 0 0 0 1 702 
0 0 0 0 0 0 6 435 436 437 438 439 464 
2 0 3 5 3 0 3 442 441 440 
10 0 10 5 9 0 4 457 448 441 440 
1 0 6 6 8 0 3 447 441 440 
5 0 6 9 6 0 3 450 442 440 
2 0 5 10 5 0 4 456 450 446 442 
4 0 7 8 10 0 3 446 444 443 
8 0 8 5 7 0 2 450 445 
8 0 7 8 7 0 2 448 447 
1 0 10 4 8 0 2 451 449 
8 0 9 8 8 0 2 451 449 
3 0 6 9 9 0 2 451 449 
4 0 3 8 8 0 1 449 
9 0 10 7 6 0 1 449 
5 0 5 7 8 0 1 449 
7 0 10 9 5 0 6 463 462 461 459 455 452 
1 0 10 8 8 0 3 460 459 452 
9 0 10 9 8 0 3 461 460 459 
4 0 7 5 5 0 1 453 
4 0 7 8 7 0 1 454 
3 0 8 10 10 0 1 458 
2 0 8 10 10 0 1 460 
4 0 4 10 7 0 1 461 
2 0 9 7 9 0 2 459 543 
9 0 8 9 9 0 1 465 
2 0 9 5 5 0 1 465 
9 0 10 6 7 0 1 465 
7 0 8 9 7 0 1 465 
8 0 10 8 6 0 1 465 
7 0 5 8 10 0 1 465 
8 0 7 5 10 0 1 465 
0 0 0 0 0 0 1 702 
0 0 0 0 0 0 3 467 469 470 
6 0 0 0 7 0 4 476 474 471 468 
7 0 0 0 3 0 3 475 473 523 
9 0 0 0 8 0 2 474 472 
7 0 0 0 9 0 2 473 472 
5 0 0 0 8 0 1 472 
9 0 0 0 9 0 1 477 
4 0 0 0 7 0 1 477 
2 0 0 0 7 0 1 477 
6 0 0 0 7 0 1 477 
7 0 0 0 10 0 1 477 
0 0 0 0 0 0 5 542 564 586 598 620 
0 0 0 0 0 0 7 479 481 483 485 489 507 508 
10 4 0 0 10 3 4 500 488 482 480 
7 7 0 0 5 5 3 499 493 484 
5 5 0 0 5 10 5 506 505 501 495 486 
1 9 0 0 4 10 4 503 502 495 486 
5 8 0 0 8 7 6 501 500 497 495 492 487 
10 7 0 0 10 6 2 495 486 
3 10 0 0 10 7 5 504 501 498 494 488 
10 6 0 0 10 9 3 497 492 487 
5 9 0 0 4 6 1 490 
1 9 0 0 7 10 2 499 495 
9 5 0 0 9 8 2 502 500 
9 6 0 0 10 10 1 491 
3 10 0 0 4 10 1 494 
4 7 0 0 7 6 1 496 
8 7 0 0 5 5 1 498 
9 10 0 0 10 10 1 509 
2 9 0 0 3 7 1 509 
6 8 0 0 10 8 1 509 
4 9 0 0 5 7 1 509 
3 8 0 0 6 2 1 509 
10 9 0 0 10 10 1 509 
7 3 0 0 9 10 1 509 
1 10 0 0 5 6 1 509 
8 5 0 0 7 10 2 509 590 
3 7 0 0 10 6 1 509 
5 7 0 0 7 8 1 509 
9 4 0 0 10 8 1 509 
10 8 0 0 5 5 1 509 
7 10 0 0 10 6 1 509 
9 9 0 0 10 10 1 509 
0 0 0 0 0 0 1 702 
0 0 0 0 0 0 7 511 512 513 514 517 540 593 
8 0 2 1 6 0 4 524 522 521 515 
10 0 10 10 4 0 4 524 518 516 515 
5 0 4 8 7 0 5 539 530 521 519 518 
8 0 10 9 2 0 5 535 531 530 521 519 
2 0 9 6 9 0 4 535 530 529 519 
6 0 10 5 9 0 4 536 534 522 520 
5 0 7 5 8 0 5 538 534 525 524 522 
10 0 6 10 4 0 5 535 534 529 528 525 
7 0 2 7 9 0 2 534 520 
9 0 5 10 5 0 3 537 528 525 
2 0 9 7 10 0 2 529 523 
5 0 8 10 10 0 3 535 528 526 
7 0 10 9 7 0 1 525 
4 0 9 5 10 0 2 535 527 
3 0 10 5 8 0 1 526 
4 0 7 10 9 0 1 527 
1 0 7 10 9 0 1 532 
10 0 10 6 8 0 1 533 
5 0 4 10 5 0 1 536 
10 0 9 9 6 0 1 536 
10 0 9 5 5 0 1 534 
8 0 5 10 7 0 1 541 
5 0 7 6 10 0 1 541 
1 0 10 10 8 0 1 541 
2 0 6 7 7 0 1 541 
2 0 8 6 6 0 1 541 
5 0 9 8 10 0 1 541 
6 0 7 4 7 0 1 541 
1 0 10 7 10 0 1 541 
5 0 6 10 10 0 1 541 
0 0 0 0 0 0 1 702 
0 0 0 0 0 0 5 543 544 545 548 551 
6 2 5 0 0 0 4 562 555 550 547 
3 7 6 0 0 0 3 556 550 546 
5 8 6 0 0 0 4 561 555 550 549 
8 7 5 0 0 0 4 562 561 553 549 
5 10 7 0 0 0 3 561 553 549 
4 6 7 0 0 0 2 561 550 
2 10 7 0 0 0 4 560 557 554 552 
9 10 10 0 0 0 4 560 557 553 552 
2 9 4 0 0 0 3 562 561 555 
8 7 10 0 0 0 1 558 
10 8 9 0 0 0 1 559 
3 8 9 0 0 0 1 559 
3 10 7 0 0 0 1 557 
7 7 10 0 0 0 1 558 
7 7 9 0 0 0 1 563 
2 10 9 0 0 0 1 563 
9 7 5 0 0 0 1 563 
6 7 8 0 0 0 2 563 635 
6 4 8 0 0 0 1 563 
8 6 9 0 0 0 1 563 
0 0 0 0 0 0 1 702 
0 0 0 0 0 0 6 565 566 568 569 570 626 
3 0 4 0 0 2 3 573 572 571 
2 0 3 0 0 7 2 574 567 
9 0 6 0 0 4 4 584 577 575 572 
9 0 9 0 0 8 4 584 576 575 574 
4 0 10 0 0 10 3 584 574 572 
7 0 9 0 0 10 5 584 582 577 576 575 
4 0 5 0 0 6 4 584 582 576 575 
10 0 10 0 0 10 4 582 581 578 576 
9 0 10 0 0 10 3 582 577 575 
8 0 9 0 0 5 3 582 578 577 
10 0 6 0 0 10 3 581 580 578 
5 0 8 0 0 9 3 583 580 579 
6 0 10 0 0 5 3 581 580 579 
10 0 7 0 0 9 1 579 
7 0 3 0 0 6 1 585 
9 0 6 0 0 8 1 585 
8 0 10 0 0 6 1 585 
1 0 10 0 0 9 1 585 
1 0 8 0 0 6 1 585 
8 0 7 0 0 10 1 585 
0 0 0 0 0 0 1 702 
0 0 0 0 0 0 4 587 588 589 590 
10 0 2 0 0 0 4 596 595 593 592 
4 0 10 0 0 0 3 596 594 591 
1 0 2 0 0 0 3 596 594 591 
1 0 8 0 0 0 1 591 
5 0 10 0 0 0 1 595 
5 0 9 0 0 0 2 594 622 
9 0 10 0 0 0 1 594 
7 0 10 0 0 0 1 597 
6 0 4 0 0 0 1 597 
1 0 10 0 0 0 1 597 
0 0 0 0 0 0 5 642 654 666 678 690 
0 0 0 0 0 0 9 599 600 601 603 604 605 608 612 670 
2 0 2 0 3 0 4 617 616 609 602 
8 0 7 0 7 0 5 617 616 611 609 606 
1 0 9 0 9 0 5 618 617 616 614 609 
8 0 8 0 7 0 3 618 614 607 
8 0 6 0 5 0 4 618 617 614 610 
10 0 9 0 10 0 3 615 614 609 
3 0 7 0 10 0 2 616 606 
2 0 10 0 5 0 3 615 614 613 
2 0 4 0 10 0 2 615 610 
2 0 7 0 6 0 2 615 613 
3 0 10 0 8 0 1 610 
4 0 10 0 6 0 1 613 
2 0 4 0 9 0 1 613 
7 0 9 0 10 0 1 613 
3 0 9 0 6 0 1 619 
9 0 6 0 7 0 1 619 
1 0 4 0 10 0 1 619 
7 0 10 0 10 0 1 619 
2 0 9 0 6 0 1 619 
9 0 10 0 6 0 1 619 
0 0 0 0 0 0 1 702 
0 0 0 0 0 0 8 621 622 623 624 625 630 631 640 
8 2 4 0 0 0 5 639 638 637 633 628 
3 10 5 0 0 0 3 637 636 626 
5 3 5 0 0 0 4 637 636 633 629 
4 5 10 0 0 0 3 637 636 628 
8 10 8 0 0 0 2 636 627 
5 8 10 0 0 0 4 638 635 633 632 
2 7 9 0 0 0 1 628 
2 5 8 0 0 0 2 635 632 
10 8 5 0 0 0 2 635 632 
7 7 6 0 0 0 2 635 632 
5 10 9 0 0 0 2 639 636 
5 6 8 0 0 0 1 634 
9 10 7 0 0 0 1 634 
8 9 8 0 0 0 1 641 
9 8 8 0 0 0 1 641 
7 8 10 0 0 0 1 641 
8 4 5 0 0 0 2 641 699 
1 10 10 0 0 0 1 641 
3 10 5 0 0 0 1 641 
8 10 10 0 0 0 1 641 
0 0 0 0 0 0 1 702 
0 0 0 0 0 0 7 643 644 645 647 648 649 652 
6 0 3 0 0 0 2 651 646 
8 0 8 0 0 0 3 651 646 680 
3 0 5 0 0 0 2 651 650 
4 0 10 0 0 0 1 650 
7 0 5 0 0 0 1 650 
5 0 6 0 0 0 1 650 
3 0 10 0 0 0 1 650 
6 0 8 0 0 0 1 653 
10 0 10 0 0 0 1 653 
6 0 10 0 0 0 1 653 
0 0 0 0 0 0 1 702 
0 0 0 0 0 0 4 655 657 658 659 
2 0 0 4 0 0 4 664 663 662 656 
1 0 0 10 0 0 2 661 660 
3 0 0 9 0 0 2 663 661 
7 0 0 6 0 0 1 662 
1 0 0 3 0 0 1 660 
7 0 0 10 0 0 1 665 
8 0 0 8 0 0 1 665 
7 0 0 7 0 0 1 665 
10 0 0 10 0 0 2 665 699 
5 0 0 8 0 0 1 665 
0 0 0 0 0 0 1 702 
0 0 0 0 0 0 5 667 668 669 670 672 
3 0 0 0 0 3 2 674 671 
1 0 0 0 0 4 2 676 673 
4 0 0 0 0 8 3 674 673 692 
8 0 0 0 0 7 1 671 
2 0 0 0 0 10 1 673 
2 0 0 0 0 10 1 675 
8 0 0 0 0 10 1 677 
2 0 0 0 0 10 1 677 
9 0 0 0 0 7 1 677 
5 0 0 0 0 6 1 677 
0 0 0 0 0 0 1 702 
0 0 0 0 0 0 5 679 681 682 687 688 
6 4 0 0 0 0 3 684 683 680 
6 8 0 0 0 0 2 686 685 
9 6 0 0 0 0 2 684 683 
4 10 0 0 0 0 1 683 
4 8 0 0 0 0 1 689 
7 7 0 0 0 0 1 689 
1 9 0 0 0 0 2 689 698 
3 7 0 0 0 0 1 689 
9 8 0 0 0 0 1 689 
2 8 0 0 0 0 1 689 
0 0 0 0 0 0 1 702 
0 0 0 0 0 0 5 691 692 693 694 695 
1 0 3 0 0 0 2 697 696 
3 0 5 0 0 0 2 697 696 
9 0 8 0 0 0 2 697 696 
4 0 8 0 0 0 2 697 696 
5 0 10 0 0 0 2 697 696 
9 0 9 0 0 0 3 700 699 698 
7 0 9 0 0 0 2 699 698 
4 0 8 0 0 0 1 701 
1 0 5 0 0 0 1 701 
10 0 10 0 0 0 1 701 
0 0 0 0 0 0 1 702 
0 0 0 0 0 0 0 
